branch-and-cut/resultados/I080/i080-115.sol
1868
11
62 5
1 41
24 4
2 62
24 7
6 24
62 15
41 3
24 15
8 15
41 15
